54
120
96	1
95	2
93	2
91	1
88	2
87	2
85	2
84	1
83	1
80	1
79	3
78	1
77	2
74	2
72	1
71	4
70	2
66	2
62	1
61	2
60	1
59	2
56	1
54	1
53	4
52	2
51	2
50	3
48	1
47	1
46	1
45	1
44	2
43	1
42	2
41	2
40	2
39	2
37	1
36	5
35	2
32	3
30	1
29	1
28	4
26	2
23	1
22	3
20	4
18	1
15	2
14	1
13	1
12	2
